26                                      
   1.00000000000000     
     4.0031125101729996    0.0000000000000000    0.0000000000000000
     0.0000000000000000    6.6044273695459692    0.0000000000000000
     0.0000000000000000    0.0000000000000000   17.7441997528000002
   Ga   As
     4     4
Direct
  0.5000000000000000  0.8386371630142477  0.5754206696611561
  0.5000000000000000  0.3386370940142456  0.4245793573388497
  0.0000000000000000  0.2657317864539692  0.6018541212782509
  0.0000000000000000  0.7657318034539671  0.3981458247217518
  0.5000000000000000  0.4524661008464577  0.5623951057378420
  0.5000000000000000  0.9524661008464577  0.4376048672621593
  0.0000000000000000  0.9281959836853346  0.6519576102516424
  0.0000000000000000  0.4281950136853325  0.3480423637483554
 
  0.00000000E+00  0.00000000E+00  0.00000000E+00
  0.00000000E+00  0.00000000E+00  0.00000000E+00
  0.00000000E+00  0.00000000E+00  0.00000000E+00
  0.00000000E+00  0.00000000E+00  0.00000000E+00
  0.00000000E+00  0.00000000E+00  0.00000000E+00
  0.00000000E+00  0.00000000E+00  0.00000000E+00
  0.00000000E+00  0.00000000E+00  0.00000000E+00
  0.00000000E+00  0.00000000E+00  0.00000000E+00
